(declare-fun var0 () String)
(declare-fun var1 () String)
(declare-fun var2 () String)
(declare-fun var3 () String)
(declare-fun var4 () String)
(declare-fun var5 () String)
(declare-fun var6 () String)
(declare-fun var7 () String)
(declare-fun var8 () String)
(declare-fun var9 () String)
(declare-fun var10 () String)
(declare-fun var11 () String)
(declare-fun var12 () String)
(declare-fun var13 () String)
(declare-fun var14 () String)
(declare-fun var15 () String)
(declare-fun var16 () String)
(declare-fun var17 () String)
(declare-fun var18 () String)
(declare-fun var19 () String)
(declare-fun var20 () String)
(declare-fun var21 () String)
(declare-fun var22 () String)
(declare-fun var23 () String)
(declare-fun var24 () String)
(declare-fun var25 () String)
(declare-fun var26 () String)
(declare-fun var27 () String)
(declare-fun var28 () String)
(declare-fun var29 () String)
(declare-fun var30 () String)
(declare-fun var31 () String)
(declare-fun var32 () String)
(declare-fun var33 () String)
(declare-fun var34 () String)
(declare-fun var35 () String)
(declare-fun var36 () String)
(declare-fun var37 () String)
(declare-fun var38 () String)
(declare-fun var39 () String)
(declare-fun var40 () String)
(declare-fun var41 () String)
(declare-fun var42 () String)
(declare-fun var43 () String)
(declare-fun var44 () String)
(declare-fun var45 () String)
(declare-fun var46 () String)
(declare-fun var47 () String)
(declare-fun var48 () String)
(declare-fun var49 () String)
(declare-fun var50 () String)
(declare-fun var51 () String)
(declare-fun var52 () String)
(declare-fun var53 () String)
(declare-fun var54 () String)
(declare-fun var55 () String)
(declare-fun var56 () String)
(declare-fun var57 () String)
(declare-fun var58 () String)
(declare-fun var59 () String)
(declare-fun var60 () String)
(assert (= var0 (str.++ var1 var2)))
(assert (= var2 (str.++ var3 var4)))
(assert (= var4 (str.++ var5 var6)))
(assert (= var6 (str.++ var7 var8)))
(assert (= var8 (str.++ var9 var10)))
(assert (= var10 (str.++ var11 var12)))
(assert (= var12 (str.++ var13 var14)))
(assert (= var14 (str.++ var15 var16)))
(assert (= var16 (str.++ var17 var18)))
(assert (= var18 (str.++ var19 var20)))
(assert (= var20 (str.++ var21 var22)))
(assert (= var22 (str.++ var23 var24)))
(assert (= var24 (str.++ var25 var26)))
(assert (= var26 (str.++ var27 var28)))
(assert (= var28 (str.++ var29 var30)))
(assert (= var30 (str.++ var31 var32)))
(assert (= var32 (str.++ var33 var34)))
(assert (= var34 (str.++ var35 var36)))
(assert (= var36 (str.++ var37 var38)))
(assert (= var38 (str.++ var39 var40)))
(assert (= var40 (str.++ var41 var42)))
(assert (= var42 (str.++ var43 var44)))
(assert (= var44 (str.++ var45 var46)))
(assert (= var46 (str.++ var47 var48)))
(assert (= var48 (str.++ var49 var50)))
(assert (= var50 (str.++ var51 var52)))
(assert (= var52 (str.++ var53 var54)))
(assert (= var54 (str.++ var55 var56)))
(assert (= var56 (str.++ var57 var58)))
(assert (= var58 (str.++ var59 var60)))
(assert (= var0 "solution"))
(assert (= "f" (str.at var39 289)))
(assert (= "7" (str.at var1 565)))
(assert (= "Q" (str.at var27 340)))
(assert (= "j" (str.at var57 816)))
(assert (= "{" (str.at var58 265)))
(assert (= "R" (str.at var11 320)))
(assert (= "R" (str.at var41 775)))
(assert (= "n" (str.at var40 195)))
(assert (= "=" (str.at var19 570)))
(assert (= "F" (str.at var54 254)))
(assert (= """" (str.at var5 157)))
(assert (= "~" (str.at var58 92)))
(assert (= ">" (str.at var33 749)))
(assert (= "X" (str.at var52 707)))
(assert (= "c" (str.at var60 29)))
(assert (= "-" (str.at var36 489)))
(assert (= "b" (str.at var56 643)))
(assert (= "P" (str.at var59 5)))
(assert (= "z" (str.at var7 802)))
(assert (= "!" (str.at var58 437)))
(assert (= "{" (str.at var1 579)))
(assert (= "U" (str.at var38 966)))
(assert (= "Y" (str.at var50 38)))
(assert (= "a" (str.at var57 49)))
(assert (= "z" (str.at var43 468)))
(assert (= "4" (str.at var18 404)))
(assert (= "n" (str.at var24 603)))
(assert (= "x" (str.at var19 252)))
(assert (= "G" (str.at var35 477)))
(assert (= "L" (str.at var52 629)))
(assert (= "(" (str.at var6 649)))
(assert (= "a" (str.at var4 440)))
(assert (= "@" (str.at var57 219)))
(assert (= "'" (str.at var9 499)))
(assert (= "0" (str.at var31 234)))
(assert (= "1" (str.at var35 169)))
(assert (= "p" (str.at var36 578)))
(assert (= ">" (str.at var1 821)))
(assert (= "q" (str.at var7 242)))
(assert (= "0" (str.at var6 413)))
(assert (= "T" (str.at var45 764)))
(assert (= "U" (str.at var8 895)))
(assert (= "V" (str.at var29 130)))
(assert (= "-" (str.at var30 727)))
(assert (= "u" (str.at var29 322)))
(assert (= "{" (str.at var26 55)))
(assert (= "J" (str.at var59 536)))
(assert (= "Z" (str.at var5 930)))
(assert (= "~" (str.at var18 657)))
(assert (= "L" (str.at var40 331)))
(assert (= "Z" (str.at var33 968)))
(assert (= "o" (str.at var13 387)))
(assert (= "y" (str.at var2 621)))
(assert (= "<" (str.at var2 272)))
(assert (= "d" (str.at var18 515)))
(assert (= "7" (str.at var12 72)))
(assert (= "(" (str.at var53 596)))
(assert (= "," (str.at var42 393)))
(assert (= "!" (str.at var9 948)))
(assert (= "7" (str.at var8 659)))
(assert (= "n" (str.at var25 428)))
(assert (= "N" (str.at var2 628)))
(assert (= ";" (str.at var48 758)))
(assert (= "m" (str.at var36 274)))
(assert (= "z" (str.at var46 880)))
(assert (= "Y" (str.at var39 16)))
(assert (= "W" (str.at var20 455)))
(assert (= "J" (str.at var36 130)))
(assert (= "0" (str.at var50 103)))
(assert (= "j" (str.at var58 392)))
(assert (= "v" (str.at var24 66)))
(assert (= "$" (str.at var42 315)))
(assert (= "D" (str.at var54 302)))
(assert (= "s" (str.at var6 964)))
(assert (= "4" (str.at var41 550)))
(assert (= "m" (str.at var29 731)))
(assert (= "\\" (str.at var31 805)))
(assert (= "5" (str.at var37 23)))
(assert (= "}" (str.at var29 175)))
(assert (= "~" (str.at var3 856)))
(assert (= ":" (str.at var4 739)))
(assert (= "]" (str.at var14 266)))
(assert (= "|" (str.at var18 205)))
(assert (= "5" (str.at var22 690)))
(assert (= "Y" (str.at var5 465)))
(assert (= "i" (str.at var36 550)))
(assert (= "c" (str.at var13 562)))
(assert (= ")" (str.at var40 961)))
(assert (= "T" (str.at var0 309)))
(assert (= "0" (str.at var54 196)))
(assert (= "2" (str.at var42 488)))
(assert (= "J" (str.at var53 604)))
(assert (= "'" (str.at var59 616)))
(assert (= "i" (str.at var52 532)))
(assert (= "5" (str.at var38 124)))
(assert (= "r" (str.at var49 844)))
(assert (= "@" (str.at var30 513)))
(assert (= "O" (str.at var39 633)))
(assert (= "7" (str.at var11 430)))
(assert (= "Y" (str.at var17 75)))
(assert (= "A" (str.at var9 634)))
(assert (= """" (str.at var22 16)))
(assert (= ":" (str.at var27 394)))
(assert (= "{" (str.at var57 696)))
(assert (= "I" (str.at var30 790)))
(assert (= "0" (str.at var12 466)))
(assert (= "u" (str.at var7 149)))
(assert (= "6" (str.at var19 469)))
(assert (= "8" (str.at var46 886)))
(assert (= "`" (str.at var54 879)))
(assert (= "6" (str.at var60 861)))
(assert (= "*" (str.at var1 924)))
(assert (= "E" (str.at var42 382)))
(assert (= "M" (str.at var4 290)))
(assert (= "6" (str.at var7 164)))
(assert (= "D" (str.at var34 696)))
(assert (= "X" (str.at var18 667)))
(assert (= "H" (str.at var6 175)))
(assert (= "z" (str.at var4 714)))
(assert (= "q" (str.at var6 575)))
(assert (= "%" (str.at var26 103)))
(assert (= "K" (str.at var50 290)))
(assert (= "N" (str.at var52 89)))
(assert (= "B" (str.at var5 137)))
(assert (= ";" (str.at var23 39)))
(assert (= "a" (str.at var57 415)))
(assert (= "u" (str.at var26 926)))
(assert (= "h" (str.at var56 131)))
(assert (= "p" (str.at var25 133)))
(assert (= "v" (str.at var10 656)))
(assert (= ">" (str.at var33 797)))
(assert (= ";" (str.at var54 498)))
(assert (= "U" (str.at var49 805)))
(assert (= "[" (str.at var55 990)))
(assert (= "9" (str.at var49 400)))
(assert (= "N" (str.at var38 574)))
(assert (= "s" (str.at var49 756)))
(assert (= "_" (str.at var45 497)))
(assert (= "O" (str.at var43 319)))
(assert (= "E" (str.at var17 394)))
(assert (= "U" (str.at var28 191)))
(assert (= "S" (str.at var40 982)))
(assert (= "{" (str.at var60 454)))
(assert (= "}" (str.at var19 952)))
(assert (= "P" (str.at var24 936)))
(assert (= "!" (str.at var29 662)))
(assert (= "@" (str.at var51 683)))
(assert (= ":" (str.at var46 396)))
(assert (= "6" (str.at var58 157)))
(assert (= "S" (str.at var25 817)))
(assert (= "=" (str.at var21 955)))
(assert (= "e" (str.at var26 992)))
(assert (= "A" (str.at var20 858)))
(assert (= "N" (str.at var39 921)))
(assert (= "D" (str.at var16 790)))
(assert (= "X" (str.at var32 156)))
(assert (= "P" (str.at var43 103)))
(assert (= "," (str.at var21 63)))
(assert (= "i" (str.at var54 69)))
(assert (= ")" (str.at var44 780)))
(assert (= "b" (str.at var41 971)))
(assert (= "n" (str.at var45 796)))
(assert (= "!" (str.at var56 363)))
(assert (= "," (str.at var35 957)))
(assert (= "!" (str.at var11 802)))
(assert (= "_" (str.at var19 697)))
(assert (= "@" (str.at var50 516)))
(assert (= "J" (str.at var3 402)))
(assert (= "r" (str.at var42 503)))
(assert (= ":" (str.at var1 704)))
(assert (= "=" (str.at var30 405)))
(assert (= "c" (str.at var16 380)))
(assert (= "u" (str.at var40 501)))
(assert (= "d" (str.at var8 42)))
(assert (= "?" (str.at var15 468)))
(assert (= "9" (str.at var59 999)))
(assert (= "H" (str.at var35 813)))
(assert (= "R" (str.at var53 458)))
(assert (= "$" (str.at var14 178)))
(assert (= "O" (str.at var29 43)))
(assert (= "E" (str.at var25 15)))
(assert (= "+" (str.at var51 524)))
(assert (= "n" (str.at var2 520)))
(assert (= "C" (str.at var17 689)))
(assert (= "d" (str.at var56 374)))
(assert (= "F" (str.at var56 607)))
(assert (= "G" (str.at var20 391)))
(assert (= "B" (str.at var15 537)))
(assert (= "'" (str.at var32 111)))
(assert (= "x" (str.at var20 289)))
(assert (= "j" (str.at var59 952)))
(assert (= "C" (str.at var56 694)))
(assert (= "h" (str.at var21 859)))
(assert (= "&" (str.at var34 578)))
(assert (= "1" (str.at var27 470)))
(assert (= "p" (str.at var13 979)))
(assert (= "O" (str.at var1 282)))
(assert (= "~" (str.at var55 522)))
(assert (= "u" (str.at var56 564)))
(assert (= "!" (str.at var39 154)))
(assert (= "c" (str.at var3 671)))
(assert (= "S" (str.at var17 343)))
(assert (= "," (str.at var4 906)))
(assert (= "z" (str.at var46 666)))
(assert (= "'" (str.at var27 842)))
(assert (= "f" (str.at var27 702)))
(assert (= "_" (str.at var55 436)))
(assert (= "x" (str.at var13 795)))
(assert (= "8" (str.at var51 578)))
(assert (= "r" (str.at var13 488)))
(assert (= ":" (str.at var26 403)))
(assert (= "r" (str.at var53 962)))
(assert (= "O" (str.at var50 474)))
(assert (= "D" (str.at var11 308)))
(assert (= "]" (str.at var8 178)))
(assert (= "C" (str.at var55 354)))
(assert (= "E" (str.at var5 750)))
(assert (= "Q" (str.at var46 553)))
(assert (= "N" (str.at var1 456)))
(assert (= "<" (str.at var47 562)))
(assert (= "k" (str.at var60 275)))
(assert (= "z" (str.at var41 124)))
(assert (= "c" (str.at var0 342)))
(assert (= "1" (str.at var14 31)))
(assert (= "0" (str.at var35 688)))
(assert (= "S" (str.at var20 417)))
(assert (= "L" (str.at var48 884)))
(assert (= "z" (str.at var10 730)))
(assert (= "E" (str.at var13 646)))
(assert (= "[" (str.at var36 51)))
(assert (= "4" (str.at var20 488)))
(assert (= "7" (str.at var15 736)))
(assert (= "P" (str.at var16 813)))
(assert (= "&" (str.at var19 987)))
(assert (= "K" (str.at var23 50)))
(assert (= "2" (str.at var48 133)))
(assert (= "U" (str.at var44 330)))
(assert (= "T" (str.at var21 20)))
(assert (= "9" (str.at var48 358)))
(assert (= "5" (str.at var32 999)))
(assert (= "s" (str.at var33 695)))
(assert (= "!" (str.at var12 763)))
(assert (= "?" (str.at var49 520)))
(assert (= "Y" (str.at var43 586)))
(assert (= "h" (str.at var33 429)))
(assert (= "]" (str.at var35 999)))
(assert (= "8" (str.at var50 635)))
(assert (= "{" (str.at var58 80)))
(assert (= "l" (str.at var4 395)))
(assert (= "/" (str.at var29 581)))
(assert (= "b" (str.at var55 576)))
(assert (= "m" (str.at var43 768)))
(assert (= "H" (str.at var60 9)))
(assert (= "M" (str.at var34 930)))
(assert (= "a" (str.at var15 609)))
(assert (= "f" (str.at var24 207)))
(assert (= "Y" (str.at var22 142)))
(assert (= "k" (str.at var7 625)))
(assert (= "V" (str.at var15 801)))
(assert (= "@" (str.at var21 409)))
(assert (= "D" (str.at var40 93)))
(assert (= "P" (str.at var28 279)))
(assert (= ")" (str.at var46 4)))
(assert (= "u" (str.at var7 871)))
(assert (= "%" (str.at var16 890)))
(assert (= "Y" (str.at var32 184)))
(assert (= "p" (str.at var1 555)))
(assert (= "d" (str.at var42 883)))
(assert (= "k" (str.at var32 860)))
(assert (= ">" (str.at var47 32)))
(assert (= "e" (str.at var22 659)))
(assert (= "7" (str.at var45 966)))
(assert (= "N" (str.at var18 124)))
(assert (= "F" (str.at var54 985)))
(assert (= "{" (str.at var55 443)))
(assert (= "b" (str.at var14 777)))
(assert (= "u" (str.at var39 432)))
(assert (= "Y" (str.at var15 275)))
(assert (= ":" (str.at var29 383)))
(assert (= "&" (str.at var15 784)))
(assert (= "O" (str.at var6 866)))
(assert (= "_" (str.at var35 333)))
(assert (= "<" (str.at var39 673)))
(assert (= "'" (str.at var22 96)))
(assert (= "a" (str.at var15 573)))
(assert (= "O" (str.at var16 767)))
(assert (= "4" (str.at var18 635)))
(assert (= "L" (str.at var55 743)))
(assert (= "8" (str.at var25 288)))
(assert (= "K" (str.at var57 502)))
(assert (= "Q" (str.at var5 786)))
(assert (= "T" (str.at var38 977)))
(assert (= "5" (str.at var18 477)))
(assert (= "." (str.at var45 385)))
(assert (= "W" (str.at var35 44)))
(assert (= "r" (str.at var2 80)))
(assert (= "7" (str.at var15 802)))
(assert (= "$" (str.at var49 705)))
(assert (= ")" (str.at var49 310)))
(assert (= "j" (str.at var9 272)))
(assert (= "q" (str.at var5 429)))
(assert (= "8" (str.at var11 44)))
(assert (= "*" (str.at var15 637)))
(assert (= "H" (str.at var42 531)))
(assert (= "/" (str.at var6 37)))
(assert (= "7" (str.at var3 480)))
(assert (= "^" (str.at var25 90)))
(assert (= "w" (str.at var21 355)))
(assert (= "^" (str.at var35 338)))
(assert (= "8" (str.at var6 378)))
(assert (= "z" (str.at var48 166)))
(assert (= "V" (str.at var11 851)))
(assert (= "E" (str.at var17 188)))
(assert (= "s" (str.at var33 796)))
(assert (= "G" (str.at var16 987)))
(assert (= "L" (str.at var10 719)))
(assert (= "L" (str.at var4 388)))
(assert (= "]" (str.at var53 482)))
(assert (= "[" (str.at var56 186)))
(assert (= "7" (str.at var13 67)))
(assert (= "7" (str.at var20 169)))
(assert (= "x" (str.at var4 723)))
(assert (= "d" (str.at var59 236)))
(assert (= ")" (str.at var20 637)))
(assert (= "S" (str.at var42 852)))
(assert (= "|" (str.at var54 371)))
(assert (= "V" (str.at var2 257)))
(assert (= "D" (str.at var13 144)))
(assert (= "2" (str.at var49 256)))
(assert (= "e" (str.at var50 708)))
(assert (= "I" (str.at var24 377)))
(assert (= "C" (str.at var37 304)))
(assert (= "&" (str.at var45 26)))
(assert (= "9" (str.at var34 503)))
(assert (= "\\" (str.at var12 404)))
(assert (= "2" (str.at var24 440)))
(assert (= "5" (str.at var3 74)))
(assert (= "O" (str.at var3 319)))
(assert (= "l" (str.at var9 507)))
(assert (= "+" (str.at var18 48)))
(assert (= "t" (str.at var56 129)))
(assert (= "?" (str.at var57 929)))
(assert (= "h" (str.at var54 225)))
(assert (= "R" (str.at var46 754)))
(assert (= "#" (str.at var46 660)))
(assert (= "t" (str.at var1 261)))
(assert (= "S" (str.at var24 505)))
(assert (= "8" (str.at var26 967)))
(assert (= "U" (str.at var12 176)))
(assert (= "J" (str.at var29 730)))
(assert (= "," (str.at var13 206)))
(assert (= "}" (str.at var23 615)))
(assert (= "\\" (str.at var26 22)))
(assert (= ">" (str.at var18 980)))
(assert (= "f" (str.at var3 390)))
(assert (= "^" (str.at var5 255)))
(assert (= "C" (str.at var42 589)))
(assert (= "_" (str.at var55 27)))
(assert (= "(" (str.at var17 103)))
(assert (= "d" (str.at var55 729)))
(assert (= "M" (str.at var42 611)))
(assert (= "=" (str.at var37 755)))
(assert (= "k" (str.at var45 710)))
(assert (= "N" (str.at var32 305)))
(assert (= "F" (str.at var8 489)))
(assert (= "p" (str.at var55 847)))
(assert (= "H" (str.at var51 986)))
(assert (= "e" (str.at var21 4)))
(assert (= "3" (str.at var43 140)))
(assert (= "v" (str.at var0 825)))
(assert (= "w" (str.at var3 231)))
(assert (= ")" (str.at var26 672)))
(assert (= "q" (str.at var23 296)))
(assert (= "(" (str.at var10 969)))
(assert (= "-" (str.at var6 441)))
(assert (= "<" (str.at var40 154)))
(assert (= "\\" (str.at var36 839)))
(assert (= "9" (str.at var10 262)))
(assert (= "6" (str.at var29 269)))
(assert (= "w" (str.at var42 115)))
(assert (= "W" (str.at var38 955)))
(assert (= "P" (str.at var3 958)))
(assert (= "k" (str.at var39 329)))
(assert (= "O" (str.at var2 958)))
(assert (= "6" (str.at var0 336)))
(assert (= ";" (str.at var15 2)))
(assert (= "A" (str.at var39 811)))
(assert (= "e" (str.at var19 556)))
(assert (= "/" (str.at var9 174)))
(assert (= "A" (str.at var23 131)))
(assert (= "g" (str.at var45 134)))
(assert (= "N" (str.at var46 716)))
(assert (= "5" (str.at var56 566)))
(assert (= "S" (str.at var30 382)))
(assert (= "D" (str.at var38 872)))
(assert (= "+" (str.at var27 833)))
(assert (= "9" (str.at var55 184)))
(assert (= "<" (str.at var0 210)))
(assert (= "9" (str.at var7 562)))
(assert (= "V" (str.at var14 422)))
(assert (= "a" (str.at var20 502)))
(assert (= "c" (str.at var0 819)))
(assert (= "X" (str.at var23 986)))
(assert (= "U" (str.at var3 855)))
(assert (= """" (str.at var40 287)))
(assert (= "k" (str.at var43 859)))
(assert (= "V" (str.at var48 406)))
(assert (= "O" (str.at var48 153)))
(assert (= ")" (str.at var27 419)))
(assert (= ";" (str.at var54 746)))
(assert (= "'" (str.at var34 845)))
(assert (= ";" (str.at var38 931)))
(assert (= "q" (str.at var4 645)))
(assert (= "d" (str.at var5 17)))
(assert (= "y" (str.at var33 367)))
(assert (= "P" (str.at var3 425)))
(assert (= "8" (str.at var13 514)))
(assert (= "." (str.at var25 824)))
(assert (= "+" (str.at var30 299)))
(assert (= "8" (str.at var24 777)))
(assert (= "A" (str.at var47 763)))
(assert (= "^" (str.at var33 580)))
(assert (= "Q" (str.at var14 975)))
(assert (= ">" (str.at var55 377)))
(assert (= "%" (str.at var17 544)))
(assert (= "F" (str.at var11 342)))
(assert (= "A" (str.at var0 768)))
(assert (= """" (str.at var23 209)))
(assert (= "1" (str.at var22 617)))
(assert (= "#" (str.at var52 989)))
(assert (= "r" (str.at var59 440)))
(assert (= "c" (str.at var15 59)))
(assert (= "S" (str.at var39 72)))
(assert (= "j" (str.at var4 115)))
(assert (= "H" (str.at var6 635)))
(assert (= "F" (str.at var10 946)))
(assert (= "S" (str.at var52 943)))
(assert (= "W" (str.at var42 102)))
(assert (= "[" (str.at var18 261)))
(assert (= "*" (str.at var39 919)))
(assert (= "F" (str.at var23 57)))
(assert (= "w" (str.at var37 538)))
(assert (= "U" (str.at var10 866)))
(assert (= "P" (str.at var2 570)))
(assert (= "@" (str.at var58 424)))
(assert (= "<" (str.at var45 983)))
(assert (= "6" (str.at var3 936)))
(assert (= "." (str.at var17 477)))
(assert (= "_" (str.at var5 772)))
(assert (= "p" (str.at var19 269)))
(assert (= "`" (str.at var3 168)))
(assert (= "\\" (str.at var20 507)))
(assert (= "," (str.at var55 993)))
(assert (= "j" (str.at var34 443)))
(assert (= "1" (str.at var37 380)))
(assert (= "h" (str.at var43 250)))
(assert (= "f" (str.at var26 667)))
(assert (= "^" (str.at var19 668)))
(assert (= "i" (str.at var60 779)))
(assert (= "Z" (str.at var11 61)))
(assert (= "Y" (str.at var32 25)))
(assert (= "H" (str.at var48 582)))
(assert (= "&" (str.at var13 414)))
(assert (= "I" (str.at var46 979)))
(assert (= "'" (str.at var52 709)))
(assert (= "'" (str.at var21 857)))
(assert (= "`" (str.at var54 423)))
(assert (= "|" (str.at var52 639)))
(assert (= ")" (str.at var18 826)))
(assert (= "R" (str.at var14 541)))
(assert (= "%" (str.at var51 358)))
(assert (= "D" (str.at var2 90)))
(assert (= "M" (str.at var42 455)))
(assert (= "H" (str.at var36 757)))
(assert (= """" (str.at var49 664)))
(assert (= "b" (str.at var16 834)))
(assert (= "X" (str.at var33 142)))
(assert (= "9" (str.at var60 337)))
(assert (= "?" (str.at var18 722)))
(assert (= "N" (str.at var8 790)))
(assert (= "|" (str.at var43 616)))
(assert (= "|" (str.at var15 18)))
(assert (= "2" (str.at var4 30)))
(assert (= "-" (str.at var33 441)))
(assert (= "q" (str.at var4 829)))
(assert (= "$" (str.at var56 885)))
(assert (= "g" (str.at var57 599)))
(assert (= "s" (str.at var7 465)))
(assert (= "\\" (str.at var43 561)))
(assert (= "o" (str.at var57 731)))
(assert (= "j" (str.at var35 296)))
(assert (= "G" (str.at var46 643)))
(assert (= ")" (str.at var11 597)))
(assert (= "f" (str.at var2 710)))
(assert (= "$" (str.at var16 191)))
(assert (= "k" (str.at var9 545)))
(assert (= "S" (str.at var29 193)))
(assert (= "{" (str.at var29 939)))
(assert (= "$" (str.at var36 202)))
(assert (= "1" (str.at var50 912)))
(assert (= "=" (str.at var38 112)))
(assert (= "Z" (str.at var31 826)))
(assert (= "d" (str.at var8 363)))
(assert (= "P" (str.at var35 260)))
(assert (= ":" (str.at var12 569)))
(assert (= "Z" (str.at var25 866)))
(assert (= "?" (str.at var22 953)))
(assert (= "y" (str.at var53 953)))
(assert (= ">" (str.at var32 687)))
(assert (= "." (str.at var19 142)))
(assert (= "F" (str.at var1 939)))
(assert (= "e" (str.at var32 125)))
(assert (= "l" (str.at var52 53)))
(assert (= "}" (str.at var37 214)))
(assert (= "{" (str.at var52 421)))
(assert (= "&" (str.at var50 240)))
(assert (= "s" (str.at var2 95)))
(assert (= "@" (str.at var2 519)))
(assert (= "+" (str.at var54 370)))
(assert (= "{" (str.at var27 307)))
(assert (= "6" (str.at var28 965)))
(assert (= "h" (str.at var7 232)))
(assert (= "}" (str.at var54 338)))
(assert (= "c" (str.at var36 751)))
(assert (= "z" (str.at var36 203)))
(assert (= "|" (str.at var28 830)))
(assert (= "_" (str.at var59 239)))
(assert (= "B" (str.at var24 796)))
(assert (= "{" (str.at var35 98)))
(assert (= ":" (str.at var42 599)))
(assert (= "n" (str.at var51 657)))
(assert (= "5" (str.at var40 282)))
(assert (= "%" (str.at var41 57)))
(assert (= "d" (str.at var9 24)))
(assert (= "f" (str.at var13 283)))
(assert (= "'" (str.at var9 140)))
(assert (= "M" (str.at var24 334)))
(assert (= ">" (str.at var56 257)))
(assert (= "(" (str.at var4 554)))
(assert (= ")" (str.at var15 914)))
(assert (= "6" (str.at var13 75)))
(assert (= "l" (str.at var39 612)))
(assert (= "Z" (str.at var38 523)))
(assert (= "4" (str.at var13 906)))
(assert (= "I" (str.at var29 888)))
(assert (= "8" (str.at var43 466)))
(assert (= "G" (str.at var46 888)))
(assert (= "h" (str.at var46 815)))
(assert (= "v" (str.at var36 862)))
(assert (= "^" (str.at var18 66)))
(assert (= "r" (str.at var46 742)))
(assert (= "Z" (str.at var60 520)))
(assert (= "S" (str.at var7 555)))
(assert (= "\\" (str.at var42 11)))
(assert (= ">" (str.at var18 348)))
(assert (= "7" (str.at var12 756)))
(assert (= "?" (str.at var46 788)))
(assert (= "t" (str.at var25 747)))
(assert (= "|" (str.at var17 538)))
(assert (= "d" (str.at var53 531)))
(assert (= "=" (str.at var14 103)))
(assert (= "K" (str.at var17 695)))
(assert (= "4" (str.at var26 186)))
(assert (= "." (str.at var42 288)))
(assert (= "L" (str.at var14 319)))
(assert (= "*" (str.at var13 661)))
(assert (= "Q" (str.at var9 478)))
(assert (= "a" (str.at var31 37)))
(assert (= "p" (str.at var45 380)))
(assert (= "," (str.at var46 707)))
(assert (= "i" (str.at var22 401)))
(assert (= "s" (str.at var35 308)))
(assert (= "k" (str.at var39 104)))
(assert (= "1" (str.at var41 105)))
(assert (= "e" (str.at var59 762)))
(assert (= "-" (str.at var9 349)))
(assert (= "+" (str.at var18 807)))
(assert (= "D" (str.at var30 510)))
(assert (= "J" (str.at var50 503)))
(assert (= "^" (str.at var49 446)))
(assert (= ")" (str.at var4 225)))
(assert (= "'" (str.at var49 436)))
(assert (= "%" (str.at var29 578)))
(assert (= """" (str.at var23 857)))
(assert (= "W" (str.at var56 187)))
(assert (= "`" (str.at var49 213)))
(assert (= "z" (str.at var16 375)))
(assert (= "r" (str.at var48 244)))
(assert (= "$" (str.at var33 666)))
(assert (= "d" (str.at var12 234)))
(assert (= "R" (str.at var50 809)))
(assert (= "?" (str.at var41 130)))
(assert (= "{" (str.at var34 858)))
(assert (= "n" (str.at var3 573)))
(assert (= "|" (str.at var40 106)))
(assert (= "`" (str.at var5 717)))
(assert (= "h" (str.at var52 671)))
(assert (= ")" (str.at var12 775)))
(assert (= "?" (str.at var43 214)))
(assert (= ")" (str.at var39 790)))
(assert (= "f" (str.at var1 462)))
(assert (= "%" (str.at var28 546)))
(assert (= "M" (str.at var44 450)))
(assert (= "w" (str.at var33 273)))
(assert (= "C" (str.at var42 164)))
(assert (= "D" (str.at var31 998)))
(assert (= "9" (str.at var57 160)))
(assert (= "^" (str.at var23 706)))
(assert (= "n" (str.at var60 411)))
(assert (= "$" (str.at var57 587)))
(assert (= "-" (str.at var46 709)))
(assert (= "y" (str.at var9 574)))
(assert (= "'" (str.at var41 388)))
(assert (= "d" (str.at var16 587)))
(assert (= "V" (str.at var23 963)))
(assert (= ">" (str.at var43 681)))
(assert (= "J" (str.at var45 90)))
(assert (= "G" (str.at var56 87)))
(assert (= "Q" (str.at var5 981)))
(assert (= "[" (str.at var4 204)))
(assert (= "d" (str.at var4 923)))
(assert (= "q" (str.at var28 647)))
(assert (= "i" (str.at var4 66)))
(assert (= "'" (str.at var17 661)))
(assert (= "t" (str.at var43 684)))
(assert (= "{" (str.at var46 653)))
(assert (= "3" (str.at var22 420)))
(assert (= "}" (str.at var21 139)))
(assert (= "d" (str.at var28 979)))
(assert (= "f" (str.at var49 784)))
(assert (= "]" (str.at var52 905)))
(assert (= """" (str.at var3 494)))
(assert (= "I" (str.at var34 4)))
(assert (= "b" (str.at var11 960)))
(assert (= "%" (str.at var54 970)))
(assert (= "1" (str.at var21 780)))
(assert (= "J" (str.at var25 957)))
(assert (= "u" (str.at var55 825)))
(assert (= "8" (str.at var47 243)))
(assert (= "n" (str.at var60 98)))
(assert (= "*" (str.at var55 668)))
(assert (= "6" (str.at var47 155)))
(assert (= "N" (str.at var55 11)))
(assert (= "[" (str.at var9 671)))
(assert (= "L" (str.at var20 102)))
(assert (= "p" (str.at var26 275)))
(assert (= "e" (str.at var51 896)))
(assert (= "T" (str.at var48 425)))
(assert (= "m" (str.at var20 660)))
(assert (= "|" (str.at var24 467)))
(assert (= "y" (str.at var54 68)))
(assert (= "J" (str.at var11 94)))
(assert (= "`" (str.at var51 394)))
(assert (= "+" (str.at var14 288)))
(assert (= "g" (str.at var47 906)))
(assert (= "O" (str.at var17 543)))
(assert (= "_" (str.at var0 947)))
(assert (= "k" (str.at var24 657)))
(assert (= "(" (str.at var35 147)))
(assert (= "o" (str.at var6 638)))
(assert (= "R" (str.at var41 703)))
(assert (= "<" (str.at var1 20)))
(assert (= "b" (str.at var60 989)))
(assert (= ";" (str.at var30 264)))
(assert (= "L" (str.at var4 750)))
(assert (= "_" (str.at var20 694)))
(assert (= "y" (str.at var34 172)))
(assert (= "$" (str.at var42 297)))
(assert (= ";" (str.at var37 891)))
(assert (= "6" (str.at var9 74)))
(assert (= "Z" (str.at var55 203)))
(assert (= "u" (str.at var4 877)))
(assert (= """" (str.at var21 618)))
(assert (= "!" (str.at var49 416)))
(assert (= "$" (str.at var14 340)))
(assert (= "-" (str.at var52 292)))
(assert (= "-" (str.at var28 730)))
(assert (= "P" (str.at var23 282)))
(assert (= "4" (str.at var15 270)))
(assert (= "2" (str.at var11 822)))
(assert (= "m" (str.at var11 330)))
(assert (= "S" (str.at var5 770)))
(assert (= "G" (str.at var9 648)))
(assert (= "J" (str.at var20 387)))
(assert (= "l" (str.at var10 400)))
(assert (= "D" (str.at var47 954)))
(assert (= "7" (str.at var36 821)))
(assert (= "s" (str.at var58 254)))
(assert (= "S" (str.at var21 845)))
(assert (= "1" (str.at var26 761)))
(assert (= "l" (str.at var60 147)))
(assert (= "q" (str.at var11 405)))
(assert (= "I" (str.at var17 808)))
(assert (= "J" (str.at var11 547)))
(assert (= "d" (str.at var46 591)))
(assert (= "&" (str.at var2 409)))
(assert (= "f" (str.at var34 72)))
(assert (= "n" (str.at var15 424)))
(assert (= """" (str.at var6 843)))
(assert (= "c" (str.at var10 743)))
(assert (= "L" (str.at var34 404)))
(assert (= "[" (str.at var45 463)))
(assert (= "n" (str.at var20 205)))
(assert (= "N" (str.at var8 345)))
(assert (= "J" (str.at var26 215)))
(assert (= "}" (str.at var5 504)))
(assert (= "m" (str.at var37 237)))
(assert (= "S" (str.at var33 48)))
(assert (= "=" (str.at var6 251)))
(assert (= "{" (str.at var32 826)))
(assert (= "m" (str.at var59 207)))
(assert (= "a" (str.at var16 65)))
(assert (= "r" (str.at var58 342)))
(assert (= "6" (str.at var47 656)))
(assert (= "P" (str.at var18 177)))
(assert (= "(" (str.at var51 215)))
(assert (= "+" (str.at var48 635)))
(assert (= "Y" (str.at var58 551)))
(assert (= "!" (str.at var13 556)))
(assert (= "t" (str.at var37 939)))
(assert (= "j" (str.at var26 126)))
(assert (= "{" (str.at var20 638)))
(assert (= "9" (str.at var11 824)))
(assert (= "z" (str.at var23 99)))
(assert (= "," (str.at var42 845)))
(assert (= "x" (str.at var4 689)))
(assert (= "u" (str.at var55 707)))
(assert (= "U" (str.at var8 720)))
(assert (= "&" (str.at var19 5)))
(assert (= "O" (str.at var6 30)))
(assert (= "_" (str.at var22 596)))
(assert (= "G" (str.at var20 182)))
(assert (= "$" (str.at var28 602)))
(assert (= "9" (str.at var10 80)))
(assert (= "V" (str.at var7 848)))
(assert (= "$" (str.at var3 849)))
(assert (= "i" (str.at var45 322)))
(assert (= "W" (str.at var18 430)))
(assert (= "U" (str.at var0 168)))
(assert (= "f" (str.at var35 843)))
(assert (= "(" (str.at var37 917)))
(assert (= "&" (str.at var18 132)))
(assert (= "Z" (str.at var0 837)))
(assert (= "y" (str.at var13 819)))
(assert (= "Z" (str.at var55 951)))
(assert (= "k" (str.at var11 426)))
(assert (= "'" (str.at var54 896)))
(assert (= "e" (str.at var19 711)))
(assert (= "j" (str.at var45 184)))
(assert (= "*" (str.at var47 462)))
(assert (= "|" (str.at var58 826)))
(assert (= "1" (str.at var14 539)))
(assert (= "5" (str.at var20 17)))
(assert (= "e" (str.at var10 215)))
(assert (= "V" (str.at var6 870)))
(assert (= "|" (str.at var39 877)))
(assert (= "," (str.at var14 32)))
(assert (= "7" (str.at var11 350)))
(assert (= "q" (str.at var36 822)))
(assert (= "P" (str.at var8 931)))
(assert (= """" (str.at var26 45)))
(assert (= "P" (str.at var2 825)))
(assert (= "f" (str.at var1 130)))
(assert (= "0" (str.at var8 469)))
(assert (= "%" (str.at var1 887)))
(assert (= ")" (str.at var35 464)))
(assert (= "=" (str.at var55 628)))
(assert (= "'" (str.at var18 966)))
(assert (= "l" (str.at var14 818)))
(assert (= "\\" (str.at var25 30)))
(assert (= "*" (str.at var23 543)))
(assert (= "Y" (str.at var33 632)))
(assert (= "A" (str.at var57 407)))
(assert (= "O" (str.at var21 903)))
(assert (= "," (str.at var39 517)))
(assert (= "b" (str.at var31 761)))
(assert (= "`" (str.at var60 570)))
(assert (= ":" (str.at var18 916)))
(assert (= "-" (str.at var14 283)))
(assert (= "v" (str.at var21 417)))
(assert (= "0" (str.at var51 308)))
(assert (= "Q" (str.at var13 933)))
(assert (= "0" (str.at var47 808)))
(assert (= "d" (str.at var35 578)))
(assert (= "r" (str.at var34 48)))
(assert (= "i" (str.at var28 313)))
(assert (= "_" (str.at var21 292)))
(assert (= "r" (str.at var42 937)))
(assert (= """" (str.at var9 753)))
(assert (= "-" (str.at var56 219)))
(assert (= "K" (str.at var5 812)))
(assert (= "s" (str.at var6 569)))
(assert (= "m" (str.at var46 181)))
(assert (= "M" (str.at var41 806)))
(assert (= "B" (str.at var20 957)))
(assert (= "}" (str.at var39 807)))
(assert (= "z" (str.at var59 146)))
(assert (= "`" (str.at var16 641)))
(assert (= "&" (str.at var4 237)))
(assert (= "=" (str.at var47 658)))
(assert (= "K" (str.at var15 381)))
(check-sat)